\Problem name: compact

Minimize
OBJROW: C
Subject To
ord(0,1):  - x(0,1) + x(0,2) >= 7
ord(0,2):  x(0,0) - x(0,2) >= 7
ord(1,1):  x(1,0) - x(1,1) >= 4
ord(1,2):  - x(1,0) + x(1,2) >= 3
ord(2,1):  - x(2,1) + x(2,2) >= 7
ord(2,2):  x(2,0) - x(2,2) >= 6
triangle2(0,1,0):  y(0,1,0) + y(1,0,0) = 1
triangle2(0,1,1):  y(0,1,1) + y(1,0,1) = 1
triangle2(0,1,2):  y(0,1,2) + y(1,0,2) = 1
triangle2(0,2,0):  y(0,2,0) + y(2,0,0) = 1
triangle2(0,2,1):  y(0,2,1) + y(2,0,1) = 1
triangle2(0,2,2):  y(0,2,2) + y(2,0,2) = 1
triangle2(1,2,0):  y(1,2,0) + y(2,1,0) = 1
triangle2(1,2,1):  y(1,2,1) + y(2,1,1) = 1
triangle2(1,2,2):  y(1,2,2) + y(2,1,2) = 1
MCLinV(0,1,0):  - x(0,0) + v(0,1,0)p - v(0,1,0)n + x(1,0) = -3
MCLinV(1,0,0):  x(0,0) + v(1,0,0)p - v(1,0,0)n - x(1,0) = -1
MCLin1(0,1,0):  u(0,1,0)p - u(0,1,0)n >= 0
MCLin2(0,1,0):  23 y(1,0,0) + u(0,1,0)p - u(0,1,0)n >= 0
MCLin3(0,1,0):  -36 y(1,0,0) - v(0,1,0)p + v(0,1,0)n + u(0,1,0)p - u(0,1,0)n >= -36
MCLin4(0,1,0):  -36 y(1,0,0) + u(0,1,0)p - u(0,1,0)n <= 0
MCLin5(0,1,0):  23 y(1,0,0) - v(0,1,0)p + v(0,1,0)n + u(0,1,0)p - u(0,1,0)n <= 23
MCLin6(1,0,0):  u(1,0,0)p - u(1,0,0)n >= 0
MCLin7(1,0,0):  40 y(0,1,0) + u(1,0,0)p - u(1,0,0)n >= 0
MCLin8(1,0,0):  -19 y(0,1,0) - v(1,0,0)p + v(1,0,0)n + u(1,0,0)p - u(1,0,0)n >= -19
MCLin9(1,0,0):  -19 y(0,1,0) + u(1,0,0)p - u(1,0,0)n <= 0
MCLin10(1,0,0):  40 y(0,1,0) - v(1,0,0)p + v(1,0,0)n + u(1,0,0)p - u(1,0,0)n <= 40
MCLinV(0,1,1):  - x(0,1) + v(0,1,1)p - v(0,1,1)n + x(1,1) = -4
MCLinV(1,0,1):  x(0,1) + v(1,0,1)p - v(1,0,1)n - x(1,1) = -7
MCLin1(0,1,1):  u(0,1,1)p - u(0,1,1)n >= 0
MCLin2(0,1,1):  34 y(1,0,1) + u(0,1,1)p - u(0,1,1)n >= 0
MCLin3(0,1,1):  -25 y(1,0,1) - v(0,1,1)p + v(0,1,1)n + u(0,1,1)p - u(0,1,1)n >= -25
MCLin4(0,1,1):  -25 y(1,0,1) + u(0,1,1)p - u(0,1,1)n <= 0
MCLin5(0,1,1):  34 y(1,0,1) - v(0,1,1)p + v(0,1,1)n + u(0,1,1)p - u(0,1,1)n <= 34
MCLin6(1,0,1):  u(1,0,1)p - u(1,0,1)n >= 0
MCLin7(1,0,1):  36 y(0,1,1) + u(1,0,1)p - u(1,0,1)n >= 0
MCLin8(1,0,1):  -23 y(0,1,1) - v(1,0,1)p + v(1,0,1)n + u(1,0,1)p - u(1,0,1)n >= -23
MCLin9(1,0,1):  -23 y(0,1,1) + u(1,0,1)p - u(1,0,1)n <= 0
MCLin10(1,0,1):  36 y(0,1,1) - v(1,0,1)p + v(1,0,1)n + u(1,0,1)p - u(1,0,1)n <= 36
MCLinV(0,1,2):  - x(0,2) + v(0,1,2)p - v(0,1,2)n + x(1,2) = -7
MCLinV(1,0,2):  x(0,2) + v(1,0,2)p - v(1,0,2)n - x(1,2) = -7
MCLin1(0,1,2):  u(0,1,2)p - u(0,1,2)n >= 0
MCLin2(0,1,2):  37 y(1,0,2) + u(0,1,2)p - u(0,1,2)n >= 0
MCLin3(0,1,2):  -22 y(1,0,2) - v(0,1,2)p + v(0,1,2)n + u(0,1,2)p - u(0,1,2)n >= -22
MCLin4(0,1,2):  -22 y(1,0,2) + u(0,1,2)p - u(0,1,2)n <= 0
MCLin5(0,1,2):  37 y(1,0,2) - v(0,1,2)p + v(0,1,2)n + u(0,1,2)p - u(0,1,2)n <= 37
MCLin6(1,0,2):  u(1,0,2)p - u(1,0,2)n >= 0
MCLin7(1,0,2):  36 y(0,1,2) + u(1,0,2)p - u(1,0,2)n >= 0
MCLin8(1,0,2):  -23 y(0,1,2) - v(1,0,2)p + v(1,0,2)n + u(1,0,2)p - u(1,0,2)n >= -23
MCLin9(1,0,2):  -23 y(0,1,2) + u(1,0,2)p - u(1,0,2)n <= 0
MCLin10(1,0,2):  36 y(0,1,2) - v(1,0,2)p + v(1,0,2)n + u(1,0,2)p - u(1,0,2)n <= 36
MCLinV(0,2,0):  - x(0,0) + v(0,2,0)p - v(0,2,0)n + x(2,0) = -2
MCLinV(2,0,0):  x(0,0) + v(2,0,0)p - v(2,0,0)n - x(2,0) = -1
MCLin1(0,2,0):  u(0,2,0)p - u(0,2,0)n >= 0
MCLin2(0,2,0):  30 y(2,0,0) + u(0,2,0)p - u(0,2,0)n >= 0
MCLin3(0,2,0):  -28 y(2,0,0) - v(0,2,0)p + v(0,2,0)n + u(0,2,0)p - u(0,2,0)n >= -28
MCLin4(0,2,0):  -28 y(2,0,0) + u(0,2,0)p - u(0,2,0)n <= 0
MCLin5(0,2,0):  30 y(2,0,0) - v(0,2,0)p + v(0,2,0)n + u(0,2,0)p - u(0,2,0)n <= 30
MCLin6(2,0,0):  u(2,0,0)p - u(2,0,0)n >= 0
MCLin7(2,0,0):  31 y(0,2,0) + u(2,0,0)p - u(2,0,0)n >= 0
MCLin8(2,0,0):  -27 y(0,2,0) - v(2,0,0)p + v(2,0,0)n + u(2,0,0)p - u(2,0,0)n >= -27
MCLin9(2,0,0):  -27 y(0,2,0) + u(2,0,0)p - u(2,0,0)n <= 0
MCLin10(2,0,0):  31 y(0,2,0) - v(2,0,0)p + v(2,0,0)n + u(2,0,0)p - u(2,0,0)n <= 31
MCLinV(0,2,1):  - x(0,1) + v(0,2,1)p - v(0,2,1)n + x(2,1) = -7
MCLinV(2,0,1):  x(0,1) + v(2,0,1)p - v(2,0,1)n - x(2,1) = -7
MCLin1(0,2,1):  u(0,2,1)p - u(0,2,1)n >= 0
MCLin2(0,2,1):  36 y(2,0,1) + u(0,2,1)p - u(0,2,1)n >= 0
MCLin3(0,2,1):  -22 y(2,0,1) - v(0,2,1)p + v(0,2,1)n + u(0,2,1)p - u(0,2,1)n >= -22
MCLin4(0,2,1):  -22 y(2,0,1) + u(0,2,1)p - u(0,2,1)n <= 0
MCLin5(0,2,1):  36 y(2,0,1) - v(0,2,1)p + v(0,2,1)n + u(0,2,1)p - u(0,2,1)n <= 36
MCLin6(2,0,1):  u(2,0,1)p - u(2,0,1)n >= 0
MCLin7(2,0,1):  36 y(0,2,1) + u(2,0,1)p - u(2,0,1)n >= 0
MCLin8(2,0,1):  -22 y(0,2,1) - v(2,0,1)p + v(2,0,1)n + u(2,0,1)p - u(2,0,1)n >= -22
MCLin9(2,0,1):  -22 y(0,2,1) + u(2,0,1)p - u(2,0,1)n <= 0
MCLin10(2,0,1):  36 y(0,2,1) - v(2,0,1)p + v(2,0,1)n + u(2,0,1)p - u(2,0,1)n <= 36
MCLinV(0,2,2):  - x(0,2) + v(0,2,2)p - v(0,2,2)n + x(2,2) = -6
MCLinV(2,0,2):  x(0,2) + v(2,0,2)p - v(2,0,2)n - x(2,2) = -7
MCLin1(0,2,2):  u(0,2,2)p - u(0,2,2)n >= 0
MCLin2(0,2,2):  35 y(2,0,2) + u(0,2,2)p - u(0,2,2)n >= 0
MCLin3(0,2,2):  -23 y(2,0,2) - v(0,2,2)p + v(0,2,2)n + u(0,2,2)p - u(0,2,2)n >= -23
MCLin4(0,2,2):  -23 y(2,0,2) + u(0,2,2)p - u(0,2,2)n <= 0
MCLin5(0,2,2):  35 y(2,0,2) - v(0,2,2)p + v(0,2,2)n + u(0,2,2)p - u(0,2,2)n <= 35
MCLin6(2,0,2):  u(2,0,2)p - u(2,0,2)n >= 0
MCLin7(2,0,2):  36 y(0,2,2) + u(2,0,2)p - u(2,0,2)n >= 0
MCLin8(2,0,2):  -22 y(0,2,2) - v(2,0,2)p + v(2,0,2)n + u(2,0,2)p - u(2,0,2)n >= -22
MCLin9(2,0,2):  -22 y(0,2,2) + u(2,0,2)p - u(2,0,2)n <= 0
MCLin10(2,0,2):  36 y(0,2,2) - v(2,0,2)p + v(2,0,2)n + u(2,0,2)p - u(2,0,2)n <= 36
MCLinV(1,2,0):  - x(1,0) + v(1,2,0)p - v(1,2,0)n + x(2,0) = -2
MCLinV(2,1,0):  x(1,0) + v(2,1,0)p - v(2,1,0)n - x(2,0) = -3
MCLin1(1,2,0):  u(1,2,0)p - u(1,2,0)n >= 0
MCLin2(1,2,0):  40 y(2,1,0) + u(1,2,0)p - u(1,2,0)n >= 0
MCLin3(1,2,0):  -19 y(2,1,0) - v(1,2,0)p + v(1,2,0)n + u(1,2,0)p - u(1,2,0)n >= -19
MCLin4(1,2,0):  -19 y(2,1,0) + u(1,2,0)p - u(1,2,0)n <= 0
MCLin5(1,2,0):  40 y(2,1,0) - v(1,2,0)p + v(1,2,0)n + u(1,2,0)p - u(1,2,0)n <= 40
MCLin6(2,1,0):  u(2,1,0)p - u(2,1,0)n >= 0
MCLin7(2,1,0):  24 y(1,2,0) + u(2,1,0)p - u(2,1,0)n >= 0
MCLin8(2,1,0):  -35 y(1,2,0) - v(2,1,0)p + v(2,1,0)n + u(2,1,0)p - u(2,1,0)n >= -35
MCLin9(2,1,0):  -35 y(1,2,0) + u(2,1,0)p - u(2,1,0)n <= 0
MCLin10(2,1,0):  24 y(1,2,0) - v(2,1,0)p + v(2,1,0)n + u(2,1,0)p - u(2,1,0)n <= 24
MCLinV(1,2,1):  - x(1,1) + v(1,2,1)p - v(1,2,1)n + x(2,1) = -7
MCLinV(2,1,1):  x(1,1) + v(2,1,1)p - v(2,1,1)n - x(2,1) = -4
MCLin1(1,2,1):  u(1,2,1)p - u(1,2,1)n >= 0
MCLin2(1,2,1):  36 y(2,1,1) + u(1,2,1)p - u(1,2,1)n >= 0
MCLin3(1,2,1):  -23 y(2,1,1) - v(1,2,1)p + v(1,2,1)n + u(1,2,1)p - u(1,2,1)n >= -23
MCLin4(1,2,1):  -23 y(2,1,1) + u(1,2,1)p - u(1,2,1)n <= 0
MCLin5(1,2,1):  36 y(2,1,1) - v(1,2,1)p + v(1,2,1)n + u(1,2,1)p - u(1,2,1)n <= 36
MCLin6(2,1,1):  u(2,1,1)p - u(2,1,1)n >= 0
MCLin7(2,1,1):  34 y(1,2,1) + u(2,1,1)p - u(2,1,1)n >= 0
MCLin8(2,1,1):  -25 y(1,2,1) - v(2,1,1)p + v(2,1,1)n + u(2,1,1)p - u(2,1,1)n >= -25
MCLin9(2,1,1):  -25 y(1,2,1) + u(2,1,1)p - u(2,1,1)n <= 0
MCLin10(2,1,1):  34 y(1,2,1) - v(2,1,1)p + v(2,1,1)n + u(2,1,1)p - u(2,1,1)n <= 34
MCLinV(1,2,2):  - x(1,2) + v(1,2,2)p - v(1,2,2)n + x(2,2) = -6
MCLinV(2,1,2):  x(1,2) + v(2,1,2)p - v(2,1,2)n - x(2,2) = -7
MCLin1(1,2,2):  u(1,2,2)p - u(1,2,2)n >= 0
MCLin2(1,2,2):  35 y(2,1,2) + u(1,2,2)p - u(1,2,2)n >= 0
MCLin3(1,2,2):  -24 y(2,1,2) - v(1,2,2)p + v(1,2,2)n + u(1,2,2)p - u(1,2,2)n >= -24
MCLin4(1,2,2):  -24 y(2,1,2) + u(1,2,2)p - u(1,2,2)n <= 0
MCLin5(1,2,2):  35 y(2,1,2) - v(1,2,2)p + v(1,2,2)n + u(1,2,2)p - u(1,2,2)n <= 35
MCLin6(2,1,2):  u(2,1,2)p - u(2,1,2)n >= 0
MCLin7(2,1,2):  37 y(1,2,2) + u(2,1,2)p - u(2,1,2)n >= 0
MCLin8(2,1,2):  -22 y(1,2,2) - v(2,1,2)p + v(2,1,2)n + u(2,1,2)p - u(2,1,2)n >= -22
MCLin9(2,1,2):  -22 y(1,2,2) + u(2,1,2)p - u(2,1,2)n <= 0
MCLin10(2,1,2):  37 y(1,2,2) - v(2,1,2)p + v(2,1,2)n + u(2,1,2)p - u(2,1,2)n <= 37
makespan(0):  C - x(0,0) >= 1
makespan(1):  C - x(1,2) >= 7
makespan(2):  C - x(2,0) >= 2
cut_clique_1(01,1):  x(0,1) + 0.94177 x(1,1) >= 1
cut_clique_1(012,1):  0.76549 x(0,1) + 0.73804 x(1,1) + 0.88620 x(2,1) >= 1
cut_clique_1(02,1):  0.74946 x(0,1) + 0.98708 x(2,1) >= 1
cut_clique_1(12,1):  0.46262 x(1,1) + 0.84927 x(2,1) >= 1
cut_clique_1(12,2):  0.06242 x(1,2) + 0.07871 x(2,2) >= 1
cut_clique_2(02,1):  0.84165 x(0,1) + 0.89051 x(2,1) >= 1
cut_clique_2(01,1):  0.74368 x(0,1) + 0.41730 x(1,1) >= 1
cut_clique_2(012,1):  0.36183 x(0,1) + 0.23013 x(1,1) + 0.77299 x(2,1) >= 1
cut_clique_2(12,1):  0.48209 x(1,1) + 0.73691 x(2,1) >= 1
cut_clique_2(12,2):  0.01576 x(1,2) + 0.11466 x(2,2) >= 1
cut_clique_3(012,1):  0.47534 x(0,1) + 0.15287 x(1,1) + 0.84444 x(2,1) >= 1
cut_clique_3(02,1):  0.77755 x(0,1) + 0.83811 x(2,1) >= 1
cut_clique_3(12,1):  0.41826 x(1,1) + 0.59094 x(2,1) >= 1
cut_clique_3(01,1):  0.34567 x(0,1) + 0.47207 x(1,1) >= 1
cut_clique_3(12,2):  0.08422 x(1,2) + 0.03372 x(2,2) >= 1
cut_clique_4(02,1):  0.30267 x(0,1) + 0.94301 x(2,1) >= 1
cut_clique_4(01,1):  0.93167 x(0,1) + 0.14861 x(1,1) >= 1
cut_clique_4(012,1):  0.69165 x(0,1) + 0.20845 x(1,1) + 0.05892 x(2,1) >= 1
cut_clique_4(12,1):  0.20817 x(1,1) + 0.76651 x(2,1) >= 1
cut_clique_4(02,2):  0.09709 x(0,2) + 0.02893 x(2,2) >= 1
cut_clique_5(02,1):  0.49036 x(0,1) + 0.56423 x(2,1) >= 1
cut_clique_5(012,1):  0.31600 x(0,1) + 0.23093 x(1,1) + 0.26611 x(2,1) >= 1
cut_clique_5(12,1):  0.39428 x(1,1) + 0.31518 x(2,1) >= 1
cut_clique_5(01,1):  0.28769 x(0,1) + 0.40107 x(1,1) >= 1
cut_clique_5(01,2):  0.05138 x(0,2) + 0.06574 x(1,2) >= 1
cut_clique_5(12,2):  0.07402 x(1,2) + 0.04110 x(2,2) >= 1
cut_clique_6(02,1):  0.73006 x(0,1) + 0.25654 x(2,1) >= 1
cut_clique_6(012,1):  0.16794 x(0,1) + 0.13430 x(1,1) + 0.51874 x(2,1) >= 1
cut_clique_6(01,1):  0.35333 x(0,1) + 0.31732 x(1,1) >= 1
cut_clique_6(12,1):  0.18058 x(1,1) + 0.44068 x(2,1) >= 1
cut_clique_6(02,2):  0.04368 x(0,2) + 0.07800 x(2,2) >= 1
cut_clique_7(012,1):  0.44186 x(0,1) + 0.07090 x(1,1) + 0.07574 x(2,1) >= 1
cut_clique_7(02,1):  0.47827 x(0,1) + 0.26603 x(2,1) >= 1
cut_clique_7(12,1):  0.16118 x(1,1) + 0.35413 x(2,1) >= 1
cut_clique_7(02,2):  0.05857 x(0,2) + 0.06159 x(2,2) >= 1
cut_clique_8(01,1):  0.25519 x(0,1) + 0.21427 x(1,1) >= 1
cut_clique_8(012,1):  0.12776 x(0,1) + 0.10353 x(1,1) + 0.32451 x(2,1) >= 1
cut_clique_8(02,1):  0.24229 x(0,1) + 0.36749 x(2,1) >= 1
cut_clique_8(01,2):  0.05651 x(0,2) + 0.05311 x(1,2) >= 1
cut_clique_9(02,1):  0.41384 x(0,1) + 0.17668 x(2,1) >= 1
cut_clique_9(012,1):  0.23173 x(0,1) + 0.00444 x(1,1) + 0.18731 x(2,1) >= 1
cut_clique_9(02,2):  0.03486 x(0,2) + 0.07866 x(2,2) >= 1
cut_clique_10(02,1):  0.25111 x(0,1) + 0.16944 x(2,1) >= 1
cut_clique_10(012,1):  0.13393 x(0,1) + 0.07296 x(1,1) + 0.15814 x(2,1) >= 1
cut_clique_10(02,2):  0.04602 x(0,2) + 0.06068 x(2,2) >= 1
Bounds
 0 <= C <= 44
 14 <= x(0,0) <= 43
 0 <= y(0,1,0) <= 1
 0 <= y(1,0,0) <= 1
 0 <= v(0,1,0)p <= 36
 0 <= v(0,1,0)n <= 23
 0 <= v(1,0,0)p <= 19
 0 <= v(1,0,0)n <= 40
 0 <= u(0,1,0)p <= 440
 0 <= u(0,1,0)n <= 440
 0 <= u(1,0,0)p <= 440
 0 <= u(1,0,0)n <= 440
 0 <= y(0,2,0) <= 1
 0 <= y(2,0,0) <= 1
 0 <= v(0,2,0)p <= 28
 0 <= v(0,2,0)n <= 30
 0 <= v(2,0,0)p <= 27
 0 <= v(2,0,0)n <= 31
 0 <= u(0,2,0)p <= 440
 0 <= u(0,2,0)n <= 440
 0 <= u(2,0,0)p <= 440
 0 <= u(2,0,0)n <= 440
 4 <= x(1,0) <= 34
 0 <= y(1,2,0) <= 1
 0 <= y(2,1,0) <= 1
 0 <= v(1,2,0)p <= 19
 0 <= v(1,2,0)n <= 40
 0 <= v(2,1,0)p <= 35
 0 <= v(2,1,0)n <= 24
 0 <= u(1,2,0)p <= 440
 0 <= u(1,2,0)n <= 440
 0 <= u(2,1,0)p <= 440
 0 <= u(2,1,0)n <= 440
 13 <= x(2,0) <= 42
 0 <= x(0,1) <= 29
 0 <= y(0,1,1) <= 1
 0 <= y(1,0,1) <= 1
 0 <= v(0,1,1)p <= 25
 0 <= v(0,1,1)n <= 34
 0 <= v(1,0,1)p <= 23
 0 <= v(1,0,1)n <= 36
 0 <= u(0,1,1)p <= 440
 0 <= u(0,1,1)n <= 440
 0 <= u(1,0,1)p <= 440
 0 <= u(1,0,1)n <= 440
 0 <= y(0,2,1) <= 1
 0 <= y(2,0,1) <= 1
 0 <= v(0,2,1)p <= 22
 0 <= v(0,2,1)n <= 36
 0 <= v(2,0,1)p <= 22
 0 <= v(2,0,1)n <= 36
 0 <= u(0,2,1)p <= 440
 0 <= u(0,2,1)n <= 440
 0 <= u(2,0,1)p <= 440
 0 <= u(2,0,1)n <= 440
 0 <= x(1,1) <= 30
 0 <= y(1,2,1) <= 1
 0 <= y(2,1,1) <= 1
 0 <= v(1,2,1)p <= 23
 0 <= v(1,2,1)n <= 36
 0 <= v(2,1,1)p <= 25
 0 <= v(2,1,1)n <= 34
 0 <= u(1,2,1)p <= 440
 0 <= u(1,2,1)n <= 440
 0 <= u(2,1,1)p <= 440
 0 <= u(2,1,1)n <= 440
 0 <= x(2,1) <= 29
 7 <= x(0,2) <= 36
 0 <= y(0,1,2) <= 1
 0 <= y(1,0,2) <= 1
 0 <= v(0,1,2)p <= 22
 0 <= v(0,1,2)n <= 37
 0 <= v(1,0,2)p <= 23
 0 <= v(1,0,2)n <= 36
 0 <= u(0,1,2)p <= 440
 0 <= u(0,1,2)n <= 440
 0 <= u(1,0,2)p <= 440
 0 <= u(1,0,2)n <= 440
 0 <= y(0,2,2) <= 1
 0 <= y(2,0,2) <= 1
 0 <= v(0,2,2)p <= 23
 0 <= v(0,2,2)n <= 35
 0 <= v(2,0,2)p <= 22
 0 <= v(2,0,2)n <= 36
 0 <= u(0,2,2)p <= 440
 0 <= u(0,2,2)n <= 440
 0 <= u(2,0,2)p <= 440
 0 <= u(2,0,2)n <= 440
 7 <= x(1,2) <= 37
 0 <= y(1,2,2) <= 1
 0 <= y(2,1,2) <= 1
 0 <= v(1,2,2)p <= 24
 0 <= v(1,2,2)n <= 35
 0 <= v(2,1,2)p <= 22
 0 <= v(2,1,2)n <= 37
 0 <= u(1,2,2)p <= 440
 0 <= u(1,2,2)n <= 440
 0 <= u(2,1,2)p <= 440
 0 <= u(2,1,2)n <= 440
 7 <= x(2,2) <= 36
End
